units lj
atom_style atomic
boundary p p p
timestep 0.001

read_data test1.atoms

mass 1 1.0
mass 2 1.0

pair_style lj/cut 2.5
pair_coeff 1 1 1.0 1.0 2.5
pair_coeff 1 2 1.0 1.0 1.122462048309
pair_coeff 2 2 1.0 1.0 2.5

neighbor 0.3 bin
neigh_modify every 20 delay 0 check no

fix 1 all nvt temp 0.9 0.9 0.1
thermo 200

dump id all atom 200 test1.lammpstrj

#run 40000
run 200